p cep 113 881
1 5
1 6
1 9
1 72
1 73
1 80
2 20
2 41
2 49
2 85
3 8
3 23
3 25
3 27
3 54
3 67
3 87
3 89
3 104
3 111
4 5
4 7
4 10
4 12
4 14
4 15
4 16
4 17
4 19
4 26
4 28
4 29
4 31
4 32
4 38
4 39
4 42
4 45
4 50
4 51
4 69
4 72
4 74
4 75
4 78
4 81
4 82
4 84
4 85
4 88
4 91
4 94
4 96
5 10
5 15
5 16
5 17
5 32
5 39
5 51
5 72
5 73
5 81
5 85
5 101
5 110
6 9
6 73
7 10
7 16
7 17
7 26
7 28
7 29
7 30
7 31
7 33
7 34
7 35
7 38
7 42
7 43
7 56
7 62
7 74
7 78
7 79
7 82
7 84
7 88
7 92
7 94
7 96
8 23
8 25
8 27
8 54
8 67
8 87
8 89
8 104
8 111
9 32
9 73
9 77
9 80
10 12
10 14
10 15
10 16
10 17
10 19
10 21
10 26
10 28
10 29
10 30
10 31
10 32
10 33
10 34
10 35
10 36
10 38
10 39
10 40
10 42
10 43
10 45
10 50
10 51
10 62
10 69
10 72
10 73
10 74
10 77
10 78
10 81
10 82
10 83
10 84
10 85
10 88
10 90
10 91
10 92
10 96
10 97
10 101
10 112
11 61
11 108
12 14
12 16
12 17
12 19
12 26
12 28
12 32
12 38
12 39
12 40
12 43
12 61
12 74
12 81
12 82
12 84
12 85
12 88
12 90
12 91
12 96
12 101
12 110
13 37
13 44
13 47
13 48
13 52
13 55
13 70
13 76
13 112
14 15
14 16
14 17
14 19
14 26
14 28
14 29
14 30
14 31
14 32
14 33
14 35
14 38
14 39
14 40
14 42
14 45
14 72
14 74
14 81
14 82
14 84
14 96
15 16
15 17
15 28
15 31
15 32
15 33
15 39
15 42
15 45
15 61
15 72
15 74
15 84
16 17
16 19
16 26
16 28
16 29
16 30
16 31
16 32
16 33
16 35
16 36
16 38
16 39
16 40
16 42
16 43
16 45
16 51
16 69
16 72
16 74
16 75
16 78
16 79
16 81
16 82
16 83
16 84
16 85
16 88
16 90
16 91
16 94
16 96
16 101
16 106
17 19
17 21
17 26
17 28
17 31
17 32
17 33
17 35
17 38
17 39
17 42
17 43
17 45
17 51
17 69
17 72
17 74
17 81
17 82
17 84
17 90
17 91
17 96
17 101
17 110
18 63
19 26
19 28
19 29
19 38
19 39
19 40
19 43
19 74
19 78
19 81
19 82
19 85
19 88
19 90
19 91
19 96
19 101
19 110
20 26
20 38
20 39
20 40
20 41
20 49
20 85
20 93
20 96
21 28
21 29
21 32
21 33
21 35
21 39
21 72
21 74
21 77
21 82
21 84
21 96
21 102
22 24
22 32
22 53
22 62
22 68
22 78
22 86
23 25
23 27
23 46
23 54
23 58
23 65
23 67
23 87
23 89
23 103
23 104
23 111
24 62
24 68
24 86
25 27
25 54
25 58
25 67
25 87
25 89
25 103
25 104
25 111
26 28
26 32
26 38
26 39
26 40
26 42
26 43
26 59
26 60
26 74
26 81
26 82
26 84
26 85
26 90
26 93
26 96
26 99
26 101
26 110
27 46
27 54
27 58
27 65
27 67
27 87
27 89
27 103
27 104
27 111
28 32
28 33
28 35
28 38
28 39
28 40
28 42
28 43
28 45
28 51
28 69
28 72
28 74
28 81
28 82
28 83
28 84
28 90
28 91
28 94
28 96
28 101
29 30
29 31
29 32
29 33
29 34
29 35
29 39
29 42
29 56
29 72
29 74
29 78
29 79
29 81
29 82
29 84
29 88
29 92
29 94
29 96
29 101
29 110
30 31
30 32
30 34
30 35
30 39
30 40
30 42
30 56
30 78
30 81
30 82
30 83
30 88
30 92
30 94
30 96
30 112
31 32
31 33
31 34
31 35
31 40
31 42
31 43
31 56
31 72
31 78
31 81
31 82
31 84
31 85
31 88
31 92
31 96
32 33
32 34
32 35
32 38
32 39
32 40
32 42
32 43
32 45
32 50
32 61
32 62
32 72
32 73
32 74
32 77
32 78
32 80
32 81
32 82
32 84
32 85
32 86
32 90
32 92
32 96
32 101
32 102
32 110
33 35
33 36
33 39
33 40
33 42
33 43
33 45
33 61
33 72
33 74
33 77
33 78
33 80
33 84
33 88
33 92
33 96
33 101
34 35
34 42
34 56
34 78
34 79
34 81
34 82
34 84
34 88
34 92
34 94
35 42
35 56
35 62
35 72
35 78
35 81
35 82
35 83
35 84
35 88
35 92
35 93
35 94
35 96
35 101
35 112
36 42
36 62
36 84
36 86
37 44
37 47
37 48
37 52
37 55
37 64
37 70
37 76
37 105
37 112
38 39
38 40
38 42
38 43
38 59
38 60
38 74
38 81
38 82
38 84
38 85
38 90
38 93
38 96
38 99
38 101
38 110
39 40
39 41
39 42
39 43
39 45
39 51
39 61
39 62
39 72
39 74
39 78
39 81
39 82
39 84
39 85
39 88
39 91
39 94
39 96
39 101
40 43
40 45
40 49
40 67
40 72
40 78
40 81
40 84
40 87
40 88
40 92
40 96
40 101
40 106
40 112
41 49
41 85
42 45
42 56
42 62
42 72
42 78
42 81
42 82
42 83
42 84
42 88
42 92
42 94
42 96
42 101
42 106
43 45
43 61
43 63
43 73
43 74
43 81
43 82
43 84
43 95
43 96
43 101
43 102
43 107
43 108
43 113
44 47
44 48
44 52
44 55
44 70
44 71
44 76
45 51
45 69
45 72
45 74
45 78
45 81
45 82
45 83
45 84
45 91
45 96
46 58
46 65
46 103
46 104
46 111
47 48
47 52
47 55
47 64
47 70
47 71
47 76
47 105
47 112
48 52
48 55
48 64
48 70
48 76
48 105
48 112
49 85
49 96
50 51
50 81
50 83
50 91
50 96
51 72
51 75
51 81
51 82
51 91
51 96
52 55
52 64
52 70
52 76
52 105
52 112
53 62
53 86
54 67
54 87
54 89
54 104
54 111
55 64
55 70
55 71
55 76
55 105
55 112
56 59
56 60
56 78
56 79
56 88
56 92
56 94
56 101
57 96
58 65
58 67
58 87
58 89
58 103
58 104
58 111
59 60
59 82
59 84
59 88
59 92
59 98
59 99
60 82
60 84
60 88
60 92
60 98
60 99
61 63
61 72
61 84
61 97
61 101
61 107
61 108
62 68
62 78
62 82
62 86
62 88
63 95
63 107
63 113
64 70
64 76
64 105
64 112
65 103
65 104
65 111
66 90
67 82
67 87
67 89
67 103
67 104
67 111
68 78
68 86
69 74
69 81
69 82
69 96
70 71
70 76
70 105
70 112
71 76
72 73
72 74
72 77
72 78
72 79
72 82
72 84
72 92
72 96
72 101
72 110
73 80
73 84
74 78
74 81
74 82
74 84
74 85
74 90
74 91
74 96
74 99
74 110
75 96
76 105
76 112
77 80
77 84
78 79
78 81
78 82
78 84
78 88
78 91
78 92
78 93
78 94
78 96
78 101
79 84
79 88
79 92
79 94
80 84
81 82
81 83
81 84
81 85
81 88
81 90
81 92
81 96
81 101
81 112
82 83
82 84
82 87
82 88
82 92
82 94
82 96
82 101
83 91
83 96
83 101
84 85
84 88
84 92
84 94
84 96
84 99
84 110
84 112
85 90
85 96
87 89
87 103
87 104
87 111
88 92
88 94
88 96
88 99
89 103
89 104
89 111
90 96
90 100
90 101
90 110
91 96
92 94
93 96
94 101
95 107
95 109
95 113
96 101
96 106
96 112
98 99
100 110
103 104
103 111
104 111
105 112
107 113
